db/data/1443014903111322493287051094145923605.z3.out
sat
-------------------
167.045578650
